
Gurobi 11.0.1 (win64) logging started Mon Apr  1 12:49:08 2024

Set parameter LogFile to value "C:\Projetos\Job_Rotation_Algorithms\Outputs\GurobiLogs\gurobi_log-output-50_wee-c15-CostaMirallesModel-NoExtraConstraint-2.log"
Gurobi Optimizer version 11.0.1 build v11.0.1rc0 (win64 - Windows 10.0 (19045.2))

CPU model: 11th Gen Intel(R) Core(TM) i7-1165G7 @ 2.80GHz, instruction set [SSE2|AVX|AVX2|AVX512]
Thread count: 4 physical cores, 8 logical processors, using up to 1 threads


Gurobi 11.0.1 (win64) logging started Mon Apr  1 21:36:58 2024

Set parameter LogFile to value "C:\Projetos\Job_Rotation_Algorithms\Outputs\GurobiLogs\gurobi_log-output-50_wee-c15-CostaMirallesModel-NoExtraConstraint-2.log"
Gurobi Optimizer version 11.0.1 build v11.0.1rc0 (win64 - Windows 10.0 (19045.2))

CPU model: 11th Gen Intel(R) Core(TM) i7-1165G7 @ 2.80GHz, instruction set [SSE2|AVX|AVX2|AVX512]
Thread count: 4 physical cores, 8 logical processors, using up to 1 threads


Gurobi 11.0.1 (win64) logging started Thu Apr  4 23:34:25 2024

Set parameter LogFile to value "C:\Projetos\Job_Rotation_Algorithms\Outputs\GurobiLogs\gurobi_log-output-50_wee-c15-CostaMirallesModel-NoExtraConstraint-2.log"
Gurobi Optimizer version 11.0.1 build v11.0.1rc0 (win64 - Windows 10.0 (19045.2))

CPU model: 11th Gen Intel(R) Core(TM) i7-1165G7 @ 2.80GHz, instruction set [SSE2|AVX|AVX2|AVX512]
Thread count: 4 physical cores, 8 logical processors, using up to 1 threads


Gurobi 11.0.1 (win64) logging started Sat Apr  6 13:04:25 2024

Set parameter LogFile to value "C:\Projetos\Job_Rotation_Algorithms\Outputs\GurobiLogs\gurobi_log-output-50_wee-c15-CostaMirallesModel-NoExtraConstraint-2.log"
Gurobi Optimizer version 11.0.1 build v11.0.1rc0 (win64 - Windows 10.0 (19045.2))

CPU model: 11th Gen Intel(R) Core(TM) i7-1165G7 @ 2.80GHz, instruction set [SSE2|AVX|AVX2|AVX512]
Thread count: 4 physical cores, 8 logical processors, using up to 1 threads


Gurobi 11.0.1 (win64) logging started Sun Apr  7 02:36:51 2024

Set parameter LogFile to value "C:\Projetos\Job_Rotation_Algorithms\Outputs\GurobiLogs\gurobi_log-output-50_wee-c15-CostaMirallesModel-NoExtraConstraint-2.log"
Gurobi Optimizer version 11.0.1 build v11.0.1rc0 (win64 - Windows 10.0 (19045.2))

CPU model: 11th Gen Intel(R) Core(TM) i7-1165G7 @ 2.80GHz, instruction set [SSE2|AVX|AVX2|AVX512]
Thread count: 4 physical cores, 8 logical processors, using up to 1 threads


Gurobi 11.0.1 (win64) logging started Sun Apr  7 09:49:48 2024

Set parameter LogFile to value "C:\Projetos\Job_Rotation_Algorithms\Outputs\GurobiLogs\gurobi_log-output-50_wee-c15-CostaMirallesModel-NoExtraConstraint-2.log"
Gurobi Optimizer version 11.0.1 build v11.0.1rc0 (win64 - Windows 10.0 (19045.2))

CPU model: 11th Gen Intel(R) Core(TM) i7-1165G7 @ 2.80GHz, instruction set [SSE2|AVX|AVX2|AVX512]
Thread count: 4 physical cores, 8 logical processors, using up to 1 threads


Gurobi 11.0.1 (win64) logging started Tue Apr  9 08:08:29 2024

Set parameter LogFile to value "C:\Projetos\Job_Rotation_Algorithms\Outputs\GurobiLogs\gurobi_log-output-50_wee-c15-CostaMirallesModel-NoExtraConstraint-2.log"
Gurobi Optimizer version 11.0.1 build v11.0.1rc0 (win64 - Windows 10.0 (19045.2))

CPU model: 11th Gen Intel(R) Core(TM) i7-1165G7 @ 2.80GHz, instruction set [SSE2|AVX|AVX2|AVX512]
Thread count: 4 physical cores, 8 logical processors, using up to 1 threads


Gurobi 11.0.1 (win64) logging started Wed Apr 10 17:38:21 2024

Set parameter LogFile to value "C:\Projetos\Job_Rotation_Algorithms\Outputs\GurobiLogs\gurobi_log-output-50_wee-c15-CostaMirallesModel-NoExtraConstraint-2.log"
Gurobi Optimizer version 11.0.1 build v11.0.1rc0 (win64 - Windows 10.0 (19045.2))

CPU model: 11th Gen Intel(R) Core(TM) i7-1165G7 @ 2.80GHz, instruction set [SSE2|AVX|AVX2|AVX512]
Thread count: 4 physical cores, 8 logical processors, using up to 1 threads


Gurobi 11.0.1 (win64) logging started Thu Apr 11 01:43:25 2024

Set parameter LogFile to value "C:\Projetos\Job_Rotation_Algorithms\Outputs\GurobiLogs\gurobi_log-output-50_wee-c15-CostaMirallesModel-NoExtraConstraint-2.log"
Gurobi Optimizer version 11.0.1 build v11.0.1rc0 (win64 - Windows 10.0 (19045.2))

CPU model: 11th Gen Intel(R) Core(TM) i7-1165G7 @ 2.80GHz, instruction set [SSE2|AVX|AVX2|AVX512]
Thread count: 4 physical cores, 8 logical processors, using up to 1 threads


Gurobi 11.0.1 (win64) logging started Sun Apr 21 03:00:08 2024

Set parameter LogFile to value "C:\Projetos\Job_Rotation_Algorithms\Outputs\GurobiLogs\gurobi_log-output-50_wee-c15-CostaMirallesModel-NoExtraConstraint-2.log"
Gurobi Optimizer version 11.0.1 build v11.0.1rc0 (win64 - Windows 10.0 (19045.2))

CPU model: 11th Gen Intel(R) Core(TM) i7-1165G7 @ 2.80GHz, instruction set [SSE2|AVX|AVX2|AVX512]
Thread count: 4 physical cores, 8 logical processors, using up to 1 threads


Gurobi 11.0.1 (win64) logging started Fri Apr 26 07:42:08 2024

Set parameter LogFile to value "C:\Projetos\Job_Rotation_Algorithms\Outputs\GurobiLogs\gurobi_log-output-50_wee-c15-CostaMirallesModel-NoExtraConstraint-2.log"
Gurobi Optimizer version 11.0.1 build v11.0.1rc0 (win64 - Windows 10.0 (19045.2))

CPU model: 11th Gen Intel(R) Core(TM) i7-1165G7 @ 2.80GHz, instruction set [SSE2|AVX|AVX2|AVX512]
Thread count: 4 physical cores, 8 logical processors, using up to 1 threads


Gurobi 11.0.1 (win64) logging started Sat Apr 27 04:33:30 2024

Set parameter LogFile to value "C:\Projetos\Job_Rotation_Algorithms\Outputs\GurobiLogs\gurobi_log-output-50_wee-c15-CostaMirallesModel-NoExtraConstraint-2.log"
Gurobi Optimizer version 11.0.1 build v11.0.1rc0 (win64 - Windows 10.0 (19045.2))

CPU model: 11th Gen Intel(R) Core(TM) i7-1165G7 @ 2.80GHz, instruction set [SSE2|AVX|AVX2|AVX512]
Thread count: 4 physical cores, 8 logical processors, using up to 1 threads


Gurobi 11.0.1 (win64) logging started Sat Apr 27 14:51:29 2024

Set parameter LogFile to value "C:\Projetos\Job_Rotation_Algorithms\Outputs\GurobiLogs\gurobi_log-output-50_wee-c15-CostaMirallesModel-NoExtraConstraint-2.log"
Gurobi Optimizer version 11.0.1 build v11.0.1rc0 (win64 - Windows 10.0 (19045.2))

CPU model: 11th Gen Intel(R) Core(TM) i7-1165G7 @ 2.80GHz, instruction set [SSE2|AVX|AVX2|AVX512]
Thread count: 4 physical cores, 8 logical processors, using up to 1 threads


Gurobi 11.0.1 (win64) logging started Wed May  1 21:08:32 2024

Set parameter LogFile to value "C:\Projetos\Job_Rotation_Algorithms\Outputs\GurobiLogs\gurobi_log-output-50_wee-c15-CostaMirallesModel-NoExtraConstraint-2.log"
Gurobi Optimizer version 11.0.1 build v11.0.1rc0 (win64 - Windows 10.0 (19045.2))

CPU model: 11th Gen Intel(R) Core(TM) i7-1165G7 @ 2.80GHz, instruction set [SSE2|AVX|AVX2|AVX512]
Thread count: 4 physical cores, 8 logical processors, using up to 1 threads

WLS license 901038 - registered to Bitka Analytics
Optimize a model with 6088 rows, 49357 columns and 1227737 nonzeros
Model fingerprint: 0x5a4df3cb
Variable types: 2 continuous, 49355 integer (49355 binary)
Coefficient statistics:
  Matrix range     [1e+00, 8e+01]
  Objective range  [1e+00, 1e+00]
  Bounds range     [1e+00, 3e+01]
  RHS range        [1e+00, 3e+01]
Presolve added 1907 rows and 1116 columns
Presolve time: 3.80s
Presolved: 7995 rows, 50473 columns, 387146 nonzeros
Variable types: 0 continuous, 50473 integer (49062 binary)

Root simplex log...

Iteration    Objective       Primal Inf.    Dual Inf.      Time
       0    1.2470000e+03   1.567000e+03   0.000000e+00      7s
    8446    1.5000000e+02   0.000000e+00   0.000000e+00      8s

Root relaxation: objective 1.500000e+02, 8446 iterations, 1.40 seconds (1.86 work units)

    Nodes    |    Current Node    |     Objective Bounds      |     Work
 Expl Unexpl |  Obj  Depth IntInf | Incumbent    BestBd   Gap | It/Node Time

     0     0  150.00000    0  197          -  150.00000      -     -    9s
     0     0  150.00000    0  199          -  150.00000      -     -    9s
     0     0  150.00000    0  199          -  150.00000      -     -   11s
     0     0  150.00000    0  194          -  150.00000      -     -   15s
     0     0  150.00000    0  182          -  150.00000      -     -   15s
     0     0  150.00000    0  175          -  150.00000      -     -   15s
     0     0  150.00000    0  175          -  150.00000      -     -   15s
     0     0  150.00000    0 1156          -  150.00000      -     -   19s
     0     0  150.00000    0 1085          -  150.00000      -     -   20s
     0     0  150.00000    0  956          -  150.00000      -     -   20s
     0     0  150.00000    0  896          -  150.00000      -     -   20s
     0     0  150.00000    0  908          -  150.00000      -     -   20s
     0     0  150.00000    0  217          -  150.00000      -     -   25s
     0     0  150.00000    0  208          -  150.00000      -     -   25s
     0     0  150.00000    0  411          -  150.00000      -     -   26s
     0     0  150.00000    0  384          -  150.00000      -     -   26s
     0     0  150.00000    0  384          -  150.00000      -     -   26s
     0     0  150.00000    0  383          -  150.00000      -     -   26s
     0     0  150.00000    0  386          -  150.00000      -     -   26s
     0     0  150.00000    0  384          -  150.00000      -     -   26s
     0     0  150.00000    0  385          -  150.00000      -     -   26s
     0     0  150.00000    0  384          -  150.00000      -     -   26s
     0     0  150.00000    0  386          -  150.00000      -     -   26s
     0     0  150.00000    0  386          -  150.00000      -     -   26s
     0     0  150.00000    0  384          -  150.00000      -     -   26s
     0     0  150.00000    0  226          -  150.00000      -     -   29s
     0     0  150.00000    0  226          -  150.00000      -     -   29s
     0     0  150.00000    0  220          -  150.00000      -     -   29s
     0     0  150.00000    0  219          -  150.00000      -     -   29s
     0     0  150.00000    0  220          -  150.00000      -     -   29s
     0     0  150.00000    0  220          -  150.00000      -     -   29s
     0     0  150.00000    0  220          -  150.00000      -     -   29s
     0     0  150.00000    0  220          -  150.00000      -     -   29s
     0     0  150.00000    0  220          -  150.00000      -     -   29s
     0     0  150.00000    0  220          -  150.00000      -     -   29s
     0     0  150.00000    0  220          -  150.00000      -     -   29s
     0     0  150.00000    0  232          -  150.00000      -     -   30s
     0     0  150.00000    0  231          -  150.00000      -     -   30s
     0     0  150.00000    0  232          -  150.00000      -     -   30s
     0     0  150.00000    0  232          -  150.00000      -     -   30s
     0     0  150.00000    0  231          -  150.00000      -     -   30s
     0     0  150.00000    0  232          -  150.00000      -     -   30s
     0     0  150.00000    0  232          -  150.00000      -     -   30s
     0     0  150.00000    0  232          -  150.00000      -     -   30s
     0     0  150.00000    0  232          -  150.00000      -     -   30s
     0     0  150.00000    0  232          -  150.00000      -     -   30s
     0     0  150.00000    0  179          -  150.00000      -     -   33s
     0     0  150.00000    0  407          -  150.00000      -     -   33s
     0     0  150.00000    0  306          -  150.00000      -     -   33s
     0     0  150.00000    0  277          -  150.00000      -     -   33s
     0     0  150.00000    0  376          -  150.00000      -     -   33s
     0     0  150.00000    0  354          -  150.00000      -     -   33s
     0     0  150.00000    0  353          -  150.00000      -     -   33s
     0     0  150.00000    0  353          -  150.00000      -     -   33s
     0     0  150.00000    0  353          -  150.00000      -     -   33s
     0     0  150.00000    0  352          -  150.00000      -     -   33s
     0     0  150.00000    0  353          -  150.00000      -     -   33s
     0     0  150.00000    0  368          -  150.00000      -     -   33s
     0     0  150.00000    0  353          -  150.00000      -     -   34s
     0     0  150.00000    0  353          -  150.00000      -     -   34s
     0     0  150.00000    0  353          -  150.00000      -     -   34s
     0     0  150.00000    0  261          -  150.00000      -     -   37s
     0     0  150.00000    0  272          -  150.00000      -     -   37s
     0     0  150.00000    0  288          -  150.00000      -     -   37s
     0     0  150.00000    0  288          -  150.00000      -     -   37s
     0     0  150.00000    0  288          -  150.00000      -     -   37s
     0     0  150.00000    0  289          -  150.00000      -     -   37s
     0     0  150.00000    0  289          -  150.00000      -     -   37s
     0     0  150.00000    0  290          -  150.00000      -     -   37s
     0     0  150.00000    0  290          -  150.00000      -     -   37s
     0     0  150.00000    0  291          -  150.00000      -     -   37s
     0     0  150.00000    0  293          -  150.00000      -     -   37s
     0     0  150.00000    0  264          -  150.00000      -     -   38s
     0     2  150.00000    0  246          -  150.00000      -     -   45s
    18    20  150.00000   10  206          -  150.00000      -  1189   50s
    61    63  150.00000   36  589          -  150.00000      -   590   55s
   125   124  150.00000   73  551          -  150.00000      -   337   60s
   184   176  150.00000  112  380          -  150.00000      -   304   65s
   264   210  150.00000   22  900          -  150.00000      -   255   70s
   276   222  150.00000   30  177          -  150.00000      -   283   75s
   382   310  150.00000   98  611          -  150.00000      -   227   80s
   485   369  150.00000   80  154          -  150.00000      -   206   85s
   597   422  150.00000  159  540          -  150.00000      -   185   90s
   646   442  150.00000  158  199          -  150.00000      -   191  183s
   648   443  150.00000   93  185          -  150.00000      -   190  190s
   651   445  150.00000   56  169          -  150.00000      -   190  200s
   653   447  150.00000   72  197          -  150.00000      -   189  209s
   654   447  150.00000   64  717          -  150.00000      -   189  211s
   655   448  150.00000   75  274          -  150.00000      -   188  217s
   656   449  150.00000  133  857          -  150.00000      -   188  220s
   657   449  150.00000  135  237          -  150.00000      -   188  226s
   659   451  150.00000  174  246          -  150.00000      -   187  233s
   661   452  150.00000   29  234          -  150.00000      -   187  239s
   662   455  150.00000   16  236          -  150.00000      -   696  241s
   676   464  150.00000   23  896          -  150.00000      -   684  245s
   678   465  150.00000   24  271          -  150.00000      -   682  250s
   743   509  150.00000   56  247          -  150.00000      -   642  255s
   844   574  150.00000  108  407          -  150.00000      -   574  260s
   925   623  150.00000  150  666          -  150.00000      -   539  265s
  1007   667  150.00000  195  239          -  150.00000      -   513  270s
  1033   682  150.00000  208  769          -  150.00000      -   517  275s
  1062   674  150.00000   48  346          -  150.00000      -   514  280s
  1069   679  150.00000   52  310          -  150.00000      -   511  285s
  1075   683  150.00000   55  306          -  150.00000      -   508  290s
  1083   688  150.00000   59  447          -  150.00000      -   505  297s
  1088   692  150.00000   61  300          -  150.00000      -   503  301s
  1093   695  150.00000   64  316          -  150.00000      -   501  308s
  1120   704  150.00000   81  417          -  150.00000      -   491  310s
  1192   734  150.00000  122  366          -  150.00000      -   468  316s
  1227   752  150.00000  141  315          -  150.00000      -   459  320s
  1249   762  150.00000  154  511          -  150.00000      -   456  325s
  1289   772 infeasible  178               -  150.00000      -   451  330s
  1367   794  150.00000   68  352          -  150.00000      -   431  335s
  1430   820  150.00000  102  304          -  150.00000      -   417  340s
  1528   847  150.00000  155  232          -  150.00000      -   395  345s
  1537   847  150.00000  161  183          -  150.00000      -   393  357s
  1540   849  150.00000  163  211          -  150.00000      -   393  360s
  1546   853  150.00000  166  263          -  150.00000      -   393  365s
  1559   852  143.34864  168  360          -  150.00000      -   392  370s
  1601   853  148.00000  174  133          -  150.00000      -   385  375s
  1669   852 infeasible  184               -  150.00000      -   373  380s
  1682   849  150.00000  168  401          -  150.00000      -   373  385s
  1717   855  144.95296  179  234          -  150.00000      -   369  390s
  1774   858 infeasible  175               -  150.00000      -   362  395s
  1835   852  150.00000  168  144          -  150.00000      -   353  400s
  1925   870  150.00000  180  128          -  150.00000      -   340  405s
  1990   865  150.00000  162  116          -  150.00000      -   330  410s
  2090   913 infeasible  172               -  150.00000      -   319  415s
  2187   955  150.00000  173  195          -  150.00000      -   309  420s
  2298   997  150.00000  180  179          -  150.00000      -   297  425s
  2406  1049  150.00000  172  173          -  150.00000      -   287  430s
  2553  1100  150.00000  185  150          -  150.00000      -   274  435s
  2692  1161  150.00000  172   89          -  150.00000      -   264  440s
  2800  1206 infeasible  207               -  150.00000      -   256  445s
  2940  1259  150.00000  209   74          -  150.00000      -   246  450s
  3068  1283  150.00000  195  115          -  150.00000      -   238  455s
  3157  1287 infeasible  204               -  150.00000      -   233  460s
  3284  1333 infeasible  186               -  150.00000      -   227  465s
  3467  1399 infeasible  182               -  150.00000      -   218  470s
  3619  1460  141.40658  183  108          -  150.00000      -   212  475s
* 3786  1542             188     134.0000000  150.00000  11.9%   204  478s
H 3788  1472                     139.0000000  150.00000  7.91%   204  479s
H 3788  1442                     141.0000000  150.00000  6.38%   204  480s
H 3814  1340                     146.0000000  150.00000  2.74%   204  483s
H 3816  1301                     147.0000000  150.00000  2.04%   204  488s
  3831  1310  149.00000  199  138  147.00000  150.00000  2.04%   204  490s
H 3840  1170                     149.0000000  150.00000  0.67%   203  491s
  3842  1169  150.00000  183  199  149.00000  150.00000  0.67%   203  498s
  3844  1170  150.00000  181  186  149.00000  150.00000  0.67%   203  503s
  3845  1171  150.00000  177 1008  149.00000  150.00000  0.67%   203  506s
  3847  1172  150.00000  133  217  149.00000  150.00000  0.67%   203  516s
  3849  1174  150.00000  119  179  149.00000  150.00000  0.67%   203  524s
  3850  1174  150.00000  101  299  149.00000  150.00000  0.67%   203  525s
H 3850  1115                     150.0000000  150.00000  0.00%   203  531s

Cutting planes:
  Gomory: 51
  Cover: 249
  Implied bound: 8
  Clique: 25
  MIR: 11
  StrongCG: 8
  Flow cover: 60
  GUB cover: 1
  Zero half: 31
  Relax-and-lift: 16

Explored 3850 nodes (951573 simplex iterations) in 531.82 seconds (426.78 work units)
Thread count was 1 (of 8 available processors)

Solution count 7: 150 149 147 ... 134

Optimal solution found (tolerance 1.00e-03)
Best objective 1.500000000000e+02, best bound 1.500000000000e+02, gap 0.0000%
